c colouring generated by benchmark framework
p edge 363 6534
v 1 19
v 2 4
v 3 18
v 4 1
v 5 12
v 6 5
v 7 13
v 8 13
v 9 17
v 10 10
v 11 11
v 12 17
v 13 11
v 14 19
v 15 8
v 16 7
v 17 9
v 18 3
v 19 3
v 20 2
v 21 4
v 22 7
v 23 9
v 24 0
v 25 12
v 26 5
v 27 19
v 28 15
v 29 10
v 30 6
v 31 13
v 32 10
v 33 17
v 34 15
v 35 1
v 36 11
v 37 1
v 38 3
v 39 18
v 40 2
v 41 5
v 42 19
v 43 14
v 44 16
v 45 15
v 46 6
v 47 5
v 48 9
v 49 14
v 50 0
v 51 12
v 52 7
v 53 13
v 54 6
v 55 3
v 56 1
v 57 8
v 58 8
v 59 18
v 60 5
v 61 19
v 62 3
v 63 19
v 64 11
v 65 6
v 66 7
v 67 2
v 68 18
v 69 9
v 70 16
v 71 14
v 72 17
v 73 0
v 74 12
v 75 9
v 76 1
v 77 10
v 78 0
v 79 12
v 80 5
v 81 5
v 82 13
v 83 17
v 84 11
v 85 17
v 86 15
v 87 12
v 88 3
v 89 13
v 90 2
v 91 19
v 92 15
v 93 19
v 94 14
v 95 16
v 96 1
v 97 7
v 98 14
v 99 9
v 100 5
v 101 6
v 102 18
v 103 0
v 104 16
v 105 1
v 106 1
v 107 5
v 108 13
v 109 10
v 110 12
v 111 18
v 112 11
v 113 15
v 114 13
v 115 2
v 116 8
v 117 17
v 118 14
v 119 14
v 120 12
v 121 4
v 122 3
v 123 6
v 124 2
v 125 19
v 126 17
v 127 15
v 128 19
v 129 7
v 130 6
v 131 1
v 132 11
v 133 7
v 134 5
v 135 13
v 136 15
v 137 8
v 138 0
v 139 16
v 140 16
v 141 18
v 142 10
v 143 3
v 144 5
v 145 5
v 146 9
v 147 19
v 148 15
v 149 17
v 150 12
v 151 11
v 152 14
v 153 17
v 154 4
v 155 13
v 156 7
v 157 7
v 158 15
v 159 14
v 160 18
v 161 8
v 162 4
v 163 0
v 164 6
v 165 3
v 166 10
v 167 5
v 168 3
v 169 5
v 170 13
v 171 4
v 172 19
v 173 0
v 174 11
v 175 11
v 176 7
v 177 14
v 178 11
v 179 8
v 180 18
v 181 19
v 182 15
v 183 14
v 184 1
v 185 0
v 186 1
v 187 9
v 188 3
v 189 3
v 190 3
v 191 9
v 192 16
v 193 13
v 194 6
v 195 8
v 196 13
v 197 2
v 198 11
v 199 4
v 200 18
v 201 13
v 202 11
v 203 17
v 204 19
v 205 0
v 206 12
v 207 5
v 208 8
v 209 1
v 210 4
v 211 4
v 212 6
v 213 17
v 214 10
v 215 12
v 216 15
v 217 19
v 218 2
v 219 9
v 220 9
v 221 1
v 222 16
v 223 3
v 224 13
v 225 14
v 226 14
v 227 11
v 228 5
v 229 19
v 230 15
v 231 0
v 232 6
v 233 4
v 234 18
v 235 8
v 236 10
v 237 10
v 238 2
v 239 2
v 240 17
v 241 17
v 242 16
v 243 12
v 244 3
v 245 7
v 246 12
v 247 13
v 248 5
v 249 17
v 250 11
v 251 1
v 252 4
v 253 15
v 254 1
v 255 5
v 256 4
v 257 16
v 258 7
v 259 8
v 260 2
v 261 9
v 262 0
v 263 18
v 264 6
v 265 12
v 266 10
v 267 13
v 268 7
v 269 17
v 270 10
v 271 5
v 272 8
v 273 3
v 274 2
v 275 16
v 276 14
v 277 13
v 278 5
v 279 3
v 280 11
v 281 14
v 282 4
v 283 16
v 284 18
v 285 6
v 286 6
v 287 0
v 288 12
v 289 15
v 290 4
v 291 0
v 292 8
v 293 10
v 294 2
v 295 9
v 296 17
v 297 5
v 298 11
v 299 12
v 300 2
v 301 9
v 302 8
v 303 17
v 304 14
v 305 16
v 306 10
v 307 6
v 308 19
v 309 3
v 310 0
v 311 4
v 312 18
v 313 19
v 314 1
v 315 18
v 316 15
v 317 6
v 318 11
v 319 5
v 320 5
v 321 12
v 322 17
v 323 9
v 324 8
v 325 11
v 326 19
v 327 16
v 328 10
v 329 9
v 330 4
v 331 2
v 332 3
v 333 13
v 334 0
v 335 2
v 336 1
v 337 18
v 338 11
v 339 17
v 340 16
v 341 0
v 342 19
v 343 14
v 344 15
v 345 16
v 346 14
v 347 6
v 348 19
v 349 10
v 350 16
v 351 7
v 352 9
v 353 3
v 354 4
v 355 12
v 356 8
v 357 18
v 358 16
v 359 9
v 360 2
v 361 6
v 362 0
v 363 1
